(set-logic HORN)
(declare-fun invariant (Real Real Real Real Real Real Real Real Real Real Real Real Real Real Real Real Real Real Real Real Real Real Real Real Real Real Real Real Real Real Real Real Real Real Real Real Real Real Real Real Real Real Real Real Real Real Real Real Bool Bool Bool Bool Bool Bool Bool Bool Bool Bool Real Real Real Real Real Real Real) Bool)

;; Initial state
(assert
  (forall ((state.cx!0!0 Real) (state.cx!0!1 Real) (state.cx!0!2 Real) (state.cx!0!3 Real) (state.cx!0!4 Real) (state.cx!0!5 Real) (state.cx!1!0 Real) (state.cx!1!1 Real) (state.cx!1!2 Real) (state.cx!1!3 Real) (state.cx!1!4 Real) (state.cx!1!5 Real) (state.cx!2!0 Real) (state.cx!2!1 Real) (state.cx!2!2 Real) (state.cx!2!3 Real) (state.cx!2!4 Real) (state.cx!2!5 Real) (state.cx!3!0 Real) (state.cx!3!1 Real) (state.cx!3!2 Real) (state.cx!3!3 Real) (state.cx!3!4 Real) (state.cx!3!5 Real) (state.cy!0!0 Real) (state.cy!0!1 Real) (state.cy!0!2 Real) (state.cy!0!3 Real) (state.cy!0!4 Real) (state.cy!0!5 Real) (state.cy!1!0 Real) (state.cy!1!1 Real) (state.cy!1!2 Real) (state.cy!1!3 Real) (state.cy!1!4 Real) (state.cy!1!5 Real) (state.cy!2!0 Real) (state.cy!2!1 Real) (state.cy!2!2 Real) (state.cy!2!3 Real) (state.cy!2!4 Real) (state.cy!2!5 Real) (state.cy!3!0 Real) (state.cy!3!1 Real) (state.cy!3!2 Real) (state.cy!3!3 Real) (state.cy!3!4 Real) (state.cy!3!5 Real) (state.good_p!0 Bool) (state.good_p!1 Bool) (state.good_p!2 Bool) (state.good_p!3 Bool) (state.good_r!0 Bool) (state.good_r!1 Bool) (state.good_r!2 Bool) (state.good_r!3 Bool) (state.good_r!4 Bool) (state.good_r!5 Bool) (state.v!0 Real) (state.v!1 Real) (state.v!2 Real) (state.v!3 Real) (state.round Real) (state.source Real) (state.val Real))
    (=> (let ((l0 (= |state.round| 0))) (let ((l1 (= |state.cx!0!0| 0))) (let ((l2 (= |state.cx!0!1| 0))) (let ((l3 (= |state.cx!0!2| 0))) (let ((l4 (= |state.cx!0!3| 0))) (let ((l5 (= |state.cx!0!4| 0))) (let ((l6 (= |state.cx!0!5| 0))) (let ((l7 (= |state.cx!1!0| 0))) (let ((l8 (= |state.cx!1!1| 0))) (let ((l9 (= |state.cx!1!2| 0))) (let ((l10 (= |state.cx!1!3| 0))) (let ((l11 (= |state.cx!1!4| 0))) (let ((l12 (= |state.cx!1!5| 0))) (let ((l13 (= |state.cx!2!0| 0))) (let ((l14 (= |state.cx!2!1| 0))) (let ((l15 (= |state.cx!2!2| 0))) (let ((l16 (= |state.cx!2!3| 0))) (let ((l17 (= |state.cx!2!4| 0))) (let ((l18 (= |state.cx!2!5| 0))) (let ((l19 (= |state.cx!3!0| 0))) (let ((l20 (= |state.cx!3!1| 0))) (let ((l21 (= |state.cx!3!2| 0))) (let ((l22 (= |state.cx!3!3| 0))) (let ((l23 (= |state.cx!3!4| 0))) (let ((l24 (= |state.cx!3!5| 0))) (let ((l25 (= |state.cy!0!0| 0))) (let ((l26 (= |state.cy!0!1| 0))) (let ((l27 (= |state.cy!0!2| 0))) (let ((l28 (= |state.cy!0!3| 0))) (let ((l29 (= |state.cy!0!4| 0))) (let ((l30 (= |state.cy!0!5| 0))) (let ((l31 (= |state.cy!1!0| 0))) (let ((l32 (= |state.cy!1!1| 0))) (let ((l33 (= |state.cy!1!2| 0))) (let ((l34 (= |state.cy!1!3| 0))) (let ((l35 (= |state.cy!1!4| 0))) (let ((l36 (= |state.cy!1!5| 0))) (let ((l37 (= |state.cy!2!0| 0))) (let ((l38 (= |state.cy!2!1| 0))) (let ((l39 (= |state.cy!2!2| 0))) (let ((l40 (= |state.cy!2!3| 0))) (let ((l41 (= |state.cy!2!4| 0))) (let ((l42 (= |state.cy!2!5| 0))) (let ((l43 (= |state.cy!3!0| 0))) (let ((l44 (= |state.cy!3!1| 0))) (let ((l45 (= |state.cy!3!2| 0))) (let ((l46 (= |state.cy!3!3| 0))) (let ((l47 (= |state.cy!3!4| 0))) (let ((l48 (= |state.cy!3!5| 0))) (let ((l49 (= |state.source| 1))) (let ((l50 (= |state.source| 2))) (let ((l51 (= |state.source| 3))) (let ((l52 (= |state.source| 4))) (let ((l53 (or l49 l50 l51 l52))) (let ((l54 (= |state.val| 0))) (let ((l55 (not l54))) (let ((l56 (and |state.good_p!0| |state.good_p!1| |state.good_p!2| |state.good_p!3|))) (let ((l57 (not |state.good_r!0|))) (let ((l58 (and l57 |state.good_r!1| |state.good_r!2| |state.good_r!3| |state.good_r!4| |state.good_r!5|))) (let ((l59 (not |state.good_r!1|))) (let ((l60 (and l59 |state.good_r!0| |state.good_r!2| |state.good_r!3| |state.good_r!4| |state.good_r!5|))) (let ((l61 (not |state.good_r!2|))) (let ((l62 (and l61 |state.good_r!0| |state.good_r!1| |state.good_r!3| |state.good_r!4| |state.good_r!5|))) (let ((l63 (not |state.good_r!3|))) (let ((l64 (and l63 |state.good_r!0| |state.good_r!1| |state.good_r!2| |state.good_r!4| |state.good_r!5|))) (let ((l65 (not |state.good_r!4|))) (let ((l66 (and l65 |state.good_r!0| |state.good_r!1| |state.good_r!2| |state.good_r!3| |state.good_r!5|))) (let ((l67 (not |state.good_r!5|))) (let ((l68 (and l67 |state.good_r!0| |state.good_r!1| |state.good_r!2| |state.good_r!3| |state.good_r!4|))) (let ((l69 (or l58 l60 l62 l64 l66 l68))) (let ((l70 (and l0 l1 l2 l3 l4 l5 l6 l7 l8 l9 l10 l11 l12 l13 l14 l15 l16 l17 l18 l19 l20 l21 l22 l23 l24 l25 l26 l27 l28 l29 l30 l31 l32 l33 l34 l35 l36 l37 l38 l39 l40 l41 l42 l43 l44 l45 l46 l47 l48 l53 l55 l56 l69))) l70)))))))))))))))))))))))))))))))))))))))))))))))))))))))))))))))))))))))
        (invariant state.cx!0!0 state.cx!0!1 state.cx!0!2 state.cx!0!3 state.cx!0!4 state.cx!0!5 state.cx!1!0 state.cx!1!1 state.cx!1!2 state.cx!1!3 state.cx!1!4 state.cx!1!5 state.cx!2!0 state.cx!2!1 state.cx!2!2 state.cx!2!3 state.cx!2!4 state.cx!2!5 state.cx!3!0 state.cx!3!1 state.cx!3!2 state.cx!3!3 state.cx!3!4 state.cx!3!5 state.cy!0!0 state.cy!0!1 state.cy!0!2 state.cy!0!3 state.cy!0!4 state.cy!0!5 state.cy!1!0 state.cy!1!1 state.cy!1!2 state.cy!1!3 state.cy!1!4 state.cy!1!5 state.cy!2!0 state.cy!2!1 state.cy!2!2 state.cy!2!3 state.cy!2!4 state.cy!2!5 state.cy!3!0 state.cy!3!1 state.cy!3!2 state.cy!3!3 state.cy!3!4 state.cy!3!5 state.good_p!0 state.good_p!1 state.good_p!2 state.good_p!3 state.good_r!0 state.good_r!1 state.good_r!2 state.good_r!3 state.good_r!4 state.good_r!5 state.v!0 state.v!1 state.v!2 state.v!3 state.round state.source state.val))
  )
)

;; Transition relation
(assert
  (forall ((state.cx!0!0 Real) (next.cx!0!0 Real) (state.cx!0!1 Real) (next.cx!0!1 Real) (state.cx!0!2 Real) (next.cx!0!2 Real) (state.cx!0!3 Real) (next.cx!0!3 Real) (state.cx!0!4 Real) (next.cx!0!4 Real) (state.cx!0!5 Real) (next.cx!0!5 Real) (state.cx!1!0 Real) (next.cx!1!0 Real) (state.cx!1!1 Real) (next.cx!1!1 Real) (state.cx!1!2 Real) (next.cx!1!2 Real) (state.cx!1!3 Real) (next.cx!1!3 Real) (state.cx!1!4 Real) (next.cx!1!4 Real) (state.cx!1!5 Real) (next.cx!1!5 Real) (state.cx!2!0 Real) (next.cx!2!0 Real) (state.cx!2!1 Real) (next.cx!2!1 Real) (state.cx!2!2 Real) (next.cx!2!2 Real) (state.cx!2!3 Real) (next.cx!2!3 Real) (state.cx!2!4 Real) (next.cx!2!4 Real) (state.cx!2!5 Real) (next.cx!2!5 Real) (state.cx!3!0 Real) (next.cx!3!0 Real) (state.cx!3!1 Real) (next.cx!3!1 Real) (state.cx!3!2 Real) (next.cx!3!2 Real) (state.cx!3!3 Real) (next.cx!3!3 Real) (state.cx!3!4 Real) (next.cx!3!4 Real) (state.cx!3!5 Real) (next.cx!3!5 Real) (state.cy!0!0 Real) (next.cy!0!0 Real) (state.cy!0!1 Real) (next.cy!0!1 Real) (state.cy!0!2 Real) (next.cy!0!2 Real) (state.cy!0!3 Real) (next.cy!0!3 Real) (state.cy!0!4 Real) (next.cy!0!4 Real) (state.cy!0!5 Real) (next.cy!0!5 Real) (state.cy!1!0 Real) (next.cy!1!0 Real) (state.cy!1!1 Real) (next.cy!1!1 Real) (state.cy!1!2 Real) (next.cy!1!2 Real) (state.cy!1!3 Real) (next.cy!1!3 Real) (state.cy!1!4 Real) (next.cy!1!4 Real) (state.cy!1!5 Real) (next.cy!1!5 Real) (state.cy!2!0 Real) (next.cy!2!0 Real) (state.cy!2!1 Real) (next.cy!2!1 Real) (state.cy!2!2 Real) (next.cy!2!2 Real) (state.cy!2!3 Real) (next.cy!2!3 Real) (state.cy!2!4 Real) (next.cy!2!4 Real) (state.cy!2!5 Real) (next.cy!2!5 Real) (state.cy!3!0 Real) (next.cy!3!0 Real) (state.cy!3!1 Real) (next.cy!3!1 Real) (state.cy!3!2 Real) (next.cy!3!2 Real) (state.cy!3!3 Real) (next.cy!3!3 Real) (state.cy!3!4 Real) (next.cy!3!4 Real) (state.cy!3!5 Real) (next.cy!3!5 Real) (state.good_p!0 Bool) (next.good_p!0 Bool) (state.good_p!1 Bool) (next.good_p!1 Bool) (state.good_p!2 Bool) (next.good_p!2 Bool) (state.good_p!3 Bool) (next.good_p!3 Bool) (state.good_r!0 Bool) (next.good_r!0 Bool) (state.good_r!1 Bool) (next.good_r!1 Bool) (state.good_r!2 Bool) (next.good_r!2 Bool) (state.good_r!3 Bool) (next.good_r!3 Bool) (state.good_r!4 Bool) (next.good_r!4 Bool) (state.good_r!5 Bool) (next.good_r!5 Bool) (state.v!0 Real) (next.v!0 Real) (state.v!1 Real) (next.v!1 Real) (state.v!2 Real) (next.v!2 Real) (state.v!3 Real) (next.v!3 Real) (state.round Real) (next.round Real) (state.source Real) (next.source Real) (state.val Real) (next.val Real))
    (=> (and (invariant state.cx!0!0 state.cx!0!1 state.cx!0!2 state.cx!0!3 state.cx!0!4 state.cx!0!5 state.cx!1!0 state.cx!1!1 state.cx!1!2 state.cx!1!3 state.cx!1!4 state.cx!1!5 state.cx!2!0 state.cx!2!1 state.cx!2!2 state.cx!2!3 state.cx!2!4 state.cx!2!5 state.cx!3!0 state.cx!3!1 state.cx!3!2 state.cx!3!3 state.cx!3!4 state.cx!3!5 state.cy!0!0 state.cy!0!1 state.cy!0!2 state.cy!0!3 state.cy!0!4 state.cy!0!5 state.cy!1!0 state.cy!1!1 state.cy!1!2 state.cy!1!3 state.cy!1!4 state.cy!1!5 state.cy!2!0 state.cy!2!1 state.cy!2!2 state.cy!2!3 state.cy!2!4 state.cy!2!5 state.cy!3!0 state.cy!3!1 state.cy!3!2 state.cy!3!3 state.cy!3!4 state.cy!3!5 state.good_p!0 state.good_p!1 state.good_p!2 state.good_p!3 state.good_r!0 state.good_r!1 state.good_r!2 state.good_r!3 state.good_r!4 state.good_r!5 state.v!0 state.v!1 state.v!2 state.v!3 state.round state.source state.val)
             (let ((l0 (= |next.source| |state.source|))) (let ((l1 (= |next.val| |state.val|))) (let ((l2 (= |state.round| 0))) (let ((l3 (not |state.good_p!0|))) (let ((l4 (= 1 |state.source|))) (let ((l5 (not l4))) (let ((l6 (= |next.cx!0!0| |state.val|))) (let ((l7 (= |next.cx!0!1| |state.val|))) (let ((l8 (= |next.cx!0!2| |state.val|))) (let ((l9 (= |next.cx!0!3| |state.val|))) (let ((l10 (= |next.cx!0!4| |state.val|))) (let ((l11 (= |next.cx!0!5| |state.val|))) (let ((l12 (and l6 l7 l8 l9 l10 l11))) (let ((l13 (or l3 l5 l12))) (let ((l14 (not |state.good_p!1|))) (let ((l15 (= 2 |state.source|))) (let ((l16 (not l15))) (let ((l17 (= |next.cx!1!0| |state.val|))) (let ((l18 (= |next.cx!1!1| |state.val|))) (let ((l19 (= |next.cx!1!2| |state.val|))) (let ((l20 (= |next.cx!1!3| |state.val|))) (let ((l21 (= |next.cx!1!4| |state.val|))) (let ((l22 (= |next.cx!1!5| |state.val|))) (let ((l23 (and l17 l18 l19 l20 l21 l22))) (let ((l24 (or l14 l16 l23))) (let ((l25 (not |state.good_p!2|))) (let ((l26 (= 3 |state.source|))) (let ((l27 (not l26))) (let ((l28 (= |next.cx!2!0| |state.val|))) (let ((l29 (= |next.cx!2!1| |state.val|))) (let ((l30 (= |next.cx!2!2| |state.val|))) (let ((l31 (= |next.cx!2!3| |state.val|))) (let ((l32 (= |next.cx!2!4| |state.val|))) (let ((l33 (= |next.cx!2!5| |state.val|))) (let ((l34 (and l28 l29 l30 l31 l32 l33))) (let ((l35 (or l25 l27 l34))) (let ((l36 (not |state.good_p!3|))) (let ((l37 (= 4 |state.source|))) (let ((l38 (not l37))) (let ((l39 (= |next.cx!3!0| |state.val|))) (let ((l40 (= |next.cx!3!1| |state.val|))) (let ((l41 (= |next.cx!3!2| |state.val|))) (let ((l42 (= |next.cx!3!3| |state.val|))) (let ((l43 (= |next.cx!3!4| |state.val|))) (let ((l44 (= |next.cx!3!5| |state.val|))) (let ((l45 (and l39 l40 l41 l42 l43 l44))) (let ((l46 (or l36 l38 l45))) (let ((l47 (= |next.cx!0!0| 0))) (let ((l48 (= |next.cx!0!1| 0))) (let ((l49 (= |next.cx!0!2| 0))) (let ((l50 (= |next.cx!0!3| 0))) (let ((l51 (= |next.cx!0!4| 0))) (let ((l52 (= |next.cx!0!5| 0))) (let ((l53 (and l47 l48 l49 l50 l51 l52))) (let ((l54 (or l3 l4 l53))) (let ((l55 (= |next.cx!1!0| 0))) (let ((l56 (= |next.cx!1!1| 0))) (let ((l57 (= |next.cx!1!2| 0))) (let ((l58 (= |next.cx!1!3| 0))) (let ((l59 (= |next.cx!1!4| 0))) (let ((l60 (= |next.cx!1!5| 0))) (let ((l61 (and l55 l56 l57 l58 l59 l60))) (let ((l62 (or l14 l15 l61))) (let ((l63 (= |next.cx!2!0| 0))) (let ((l64 (= |next.cx!2!1| 0))) (let ((l65 (= |next.cx!2!2| 0))) (let ((l66 (= |next.cx!2!3| 0))) (let ((l67 (= |next.cx!2!4| 0))) (let ((l68 (= |next.cx!2!5| 0))) (let ((l69 (and l63 l64 l65 l66 l67 l68))) (let ((l70 (or l25 l26 l69))) (let ((l71 (= |next.cx!3!0| 0))) (let ((l72 (= |next.cx!3!1| 0))) (let ((l73 (= |next.cx!3!2| 0))) (let ((l74 (= |next.cx!3!3| 0))) (let ((l75 (= |next.cx!3!4| 0))) (let ((l76 (= |next.cx!3!5| 0))) (let ((l77 (and l71 l72 l73 l74 l75 l76))) (let ((l78 (or l36 l37 l77))) (let ((l79 (and l13 l24 l35 l46 l54 l62 l70 l78))) (let ((l80 (= |next.round| 1))) (let ((l81 (= |next.cy!0!0| |state.cy!0!0|))) (let ((l82 (= |next.cy!0!1| |state.cy!0!1|))) (let ((l83 (= |next.cy!0!2| |state.cy!0!2|))) (let ((l84 (= |next.cy!0!3| |state.cy!0!3|))) (let ((l85 (= |next.cy!0!4| |state.cy!0!4|))) (let ((l86 (= |next.cy!0!5| |state.cy!0!5|))) (let ((l87 (= |next.cy!1!0| |state.cy!1!0|))) (let ((l88 (= |next.cy!1!1| |state.cy!1!1|))) (let ((l89 (= |next.cy!1!2| |state.cy!1!2|))) (let ((l90 (= |next.cy!1!3| |state.cy!1!3|))) (let ((l91 (= |next.cy!1!4| |state.cy!1!4|))) (let ((l92 (= |next.cy!1!5| |state.cy!1!5|))) (let ((l93 (= |next.cy!2!0| |state.cy!2!0|))) (let ((l94 (= |next.cy!2!1| |state.cy!2!1|))) (let ((l95 (= |next.cy!2!2| |state.cy!2!2|))) (let ((l96 (= |next.cy!2!3| |state.cy!2!3|))) (let ((l97 (= |next.cy!2!4| |state.cy!2!4|))) (let ((l98 (= |next.cy!2!5| |state.cy!2!5|))) (let ((l99 (= |next.cy!3!0| |state.cy!3!0|))) (let ((l100 (= |next.cy!3!1| |state.cy!3!1|))) (let ((l101 (= |next.cy!3!2| |state.cy!3!2|))) (let ((l102 (= |next.cy!3!3| |state.cy!3!3|))) (let ((l103 (= |next.cy!3!4| |state.cy!3!4|))) (let ((l104 (= |next.cy!3!5| |state.cy!3!5|))) (let ((l105 (and l81 l82 l83 l84 l85 l86 l87 l88 l89 l90 l91 l92 l93 l94 l95 l96 l97 l98 l99 l100 l101 l102 l103 l104))) (let ((l106 (= |next.good_p!0| |state.good_p!0|))) (let ((l107 (= |next.good_p!1| |state.good_p!1|))) (let ((l108 (= |next.good_p!2| |state.good_p!2|))) (let ((l109 (= |next.good_p!3| |state.good_p!3|))) (let ((l110 (and l106 l107 l108 l109))) (let ((l111 (= |next.good_r!0| |state.good_r!0|))) (let ((l112 (= |next.good_r!1| |state.good_r!1|))) (let ((l113 (= |next.good_r!2| |state.good_r!2|))) (let ((l114 (= |next.good_r!3| |state.good_r!3|))) (let ((l115 (= |next.good_r!4| |state.good_r!4|))) (let ((l116 (= |next.good_r!5| |state.good_r!5|))) (let ((l117 (and l111 l112 l113 l114 l115 l116))) (let ((l118 (= |next.v!0| |state.v!0|))) (let ((l119 (= |next.v!1| |state.v!1|))) (let ((l120 (= |next.v!2| |state.v!2|))) (let ((l121 (= |next.v!3| |state.v!3|))) (let ((l122 (and l118 l119 l120 l121))) (let ((l123 (and l2 l79 l80 l105 l110 l117 l122))) (let ((l124 (= |state.round| 1))) (let ((l125 (not |state.good_r!0|))) (let ((l126 (= |state.source| 4))) (let ((l127 (= |state.source| 3))) (let ((l128 (= |state.source| 2))) (let ((l129 (ite l128 |state.cx!1!0| |state.cx!0!0|))) (let ((l130 (ite l127 |state.cx!2!0| l129))) (let ((l131 (ite l126 |state.cx!3!0| l130))) (let ((l132 (= |next.cy!0!0| l131))) (let ((l133 (or l125 l132))) (let ((l134 (= |next.cy!1!0| l131))) (let ((l135 (or l125 l134))) (let ((l136 (= |next.cy!2!0| l131))) (let ((l137 (or l125 l136))) (let ((l138 (= |next.cy!3!0| l131))) (let ((l139 (or l125 l138))) (let ((l140 (not |state.good_r!1|))) (let ((l141 (ite l128 |state.cx!1!1| |state.cx!0!1|))) (let ((l142 (ite l127 |state.cx!2!1| l141))) (let ((l143 (ite l126 |state.cx!3!1| l142))) (let ((l144 (= |next.cy!0!1| l143))) (let ((l145 (or l140 l144))) (let ((l146 (= |next.cy!1!1| l143))) (let ((l147 (or l140 l146))) (let ((l148 (= |next.cy!2!1| l143))) (let ((l149 (or l140 l148))) (let ((l150 (= |next.cy!3!1| l143))) (let ((l151 (or l140 l150))) (let ((l152 (not |state.good_r!2|))) (let ((l153 (ite l128 |state.cx!1!2| |state.cx!0!2|))) (let ((l154 (ite l127 |state.cx!2!2| l153))) (let ((l155 (ite l126 |state.cx!3!2| l154))) (let ((l156 (= |next.cy!0!2| l155))) (let ((l157 (or l152 l156))) (let ((l158 (= |next.cy!1!2| l155))) (let ((l159 (or l152 l158))) (let ((l160 (= |next.cy!2!2| l155))) (let ((l161 (or l152 l160))) (let ((l162 (= |next.cy!3!2| l155))) (let ((l163 (or l152 l162))) (let ((l164 (not |state.good_r!3|))) (let ((l165 (ite l128 |state.cx!1!3| |state.cx!0!3|))) (let ((l166 (ite l127 |state.cx!2!3| l165))) (let ((l167 (ite l126 |state.cx!3!3| l166))) (let ((l168 (= |next.cy!0!3| l167))) (let ((l169 (or l164 l168))) (let ((l170 (= |next.cy!1!3| l167))) (let ((l171 (or l164 l170))) (let ((l172 (= |next.cy!2!3| l167))) (let ((l173 (or l164 l172))) (let ((l174 (= |next.cy!3!3| l167))) (let ((l175 (or l164 l174))) (let ((l176 (not |state.good_r!4|))) (let ((l177 (ite l128 |state.cx!1!4| |state.cx!0!4|))) (let ((l178 (ite l127 |state.cx!2!4| l177))) (let ((l179 (ite l126 |state.cx!3!4| l178))) (let ((l180 (= |next.cy!0!4| l179))) (let ((l181 (or l176 l180))) (let ((l182 (= |next.cy!1!4| l179))) (let ((l183 (or l176 l182))) (let ((l184 (= |next.cy!2!4| l179))) (let ((l185 (or l176 l184))) (let ((l186 (= |next.cy!3!4| l179))) (let ((l187 (or l176 l186))) (let ((l188 (not |state.good_r!5|))) (let ((l189 (ite l128 |state.cx!1!5| |state.cx!0!5|))) (let ((l190 (ite l127 |state.cx!2!5| l189))) (let ((l191 (ite l126 |state.cx!3!5| l190))) (let ((l192 (= |next.cy!0!5| l191))) (let ((l193 (or l188 l192))) (let ((l194 (= |next.cy!1!5| l191))) (let ((l195 (or l188 l194))) (let ((l196 (= |next.cy!2!5| l191))) (let ((l197 (or l188 l196))) (let ((l198 (= |next.cy!3!5| l191))) (let ((l199 (or l188 l198))) (let ((l200 (and l133 l135 l137 l139 l145 l147 l149 l151 l157 l159 l161 l163 l169 l171 l173 l175 l181 l183 l185 l187 l193 l195 l197 l199))) (let ((l201 (= |next.round| 2))) (let ((l202 (= |next.cx!0!0| |state.cx!0!0|))) (let ((l203 (= |next.cx!0!1| |state.cx!0!1|))) (let ((l204 (= |next.cx!0!2| |state.cx!0!2|))) (let ((l205 (= |next.cx!0!3| |state.cx!0!3|))) (let ((l206 (= |next.cx!0!4| |state.cx!0!4|))) (let ((l207 (= |next.cx!0!5| |state.cx!0!5|))) (let ((l208 (= |next.cx!1!0| |state.cx!1!0|))) (let ((l209 (= |next.cx!1!1| |state.cx!1!1|))) (let ((l210 (= |next.cx!1!2| |state.cx!1!2|))) (let ((l211 (= |next.cx!1!3| |state.cx!1!3|))) (let ((l212 (= |next.cx!1!4| |state.cx!1!4|))) (let ((l213 (= |next.cx!1!5| |state.cx!1!5|))) (let ((l214 (= |next.cx!2!0| |state.cx!2!0|))) (let ((l215 (= |next.cx!2!1| |state.cx!2!1|))) (let ((l216 (= |next.cx!2!2| |state.cx!2!2|))) (let ((l217 (= |next.cx!2!3| |state.cx!2!3|))) (let ((l218 (= |next.cx!2!4| |state.cx!2!4|))) (let ((l219 (= |next.cx!2!5| |state.cx!2!5|))) (let ((l220 (= |next.cx!3!0| |state.cx!3!0|))) (let ((l221 (= |next.cx!3!1| |state.cx!3!1|))) (let ((l222 (= |next.cx!3!2| |state.cx!3!2|))) (let ((l223 (= |next.cx!3!3| |state.cx!3!3|))) (let ((l224 (= |next.cx!3!4| |state.cx!3!4|))) (let ((l225 (= |next.cx!3!5| |state.cx!3!5|))) (let ((l226 (and l202 l203 l204 l205 l206 l207 l208 l209 l210 l211 l212 l213 l214 l215 l216 l217 l218 l219 l220 l221 l222 l223 l224 l225))) (let ((l227 (and l124 l200 l201 l226 l110 l117 l122))) (let ((l228 (= |state.round| 2))) (let ((l229 (= |state.cy!0!4| |state.cy!0!5|))) (let ((l230 (ite l229 2 0))) (let ((l231 (= l230 0))) (let ((l232 (= |state.cy!0!3| |state.cy!0!5|))) (let ((l233 (+ l230 1))) (let ((l234 (- l230 1))) (let ((l235 (ite l232 l233 l234))) (let ((l236 (ite l231 1 l235))) (let ((l237 (= l236 0))) (let ((l238 (ite l231 |state.cy!0!3| |state.cy!0!5|))) (let ((l239 (= |state.cy!0!2| l238))) (let ((l240 (+ l236 1))) (let ((l241 (- l236 1))) (let ((l242 (ite l239 l240 l241))) (let ((l243 (ite l237 1 l242))) (let ((l244 (= l243 0))) (let ((l245 (ite l237 |state.cy!0!2| l238))) (let ((l246 (= |state.cy!0!1| l245))) (let ((l247 (+ l243 1))) (let ((l248 (- l243 1))) (let ((l249 (ite l246 l247 l248))) (let ((l250 (ite l244 1 l249))) (let ((l251 (= l250 0))) (let ((l252 (ite l244 |state.cy!0!1| l245))) (let ((l253 (ite l251 |state.cy!0!0| l252))) (let ((l254 (= |state.cy!0!5| l253))) (let ((l255 (ite l254 3 4))) (let ((l256 (= l255 0))) (let ((l257 (= |state.cy!0!4| l253))) (let ((l258 (- l255 1))) (let ((l259 (ite l257 l258 l255))) (let ((l260 (= l259 0))) (let ((l261 (= |state.cy!0!3| l253))) (let ((l262 (- l259 1))) (let ((l263 (ite l261 l262 l259))) (let ((l264 (= l263 0))) (let ((l265 (= |state.cy!0!2| l253))) (let ((l266 (- l263 1))) (let ((l267 (ite l265 l266 l263))) (let ((l268 (= l267 0))) (let ((l269 (= |state.cy!0!1| l253))) (let ((l270 (- l267 1))) (let ((l271 (ite l269 l270 l267))) (let ((l272 (= l271 0))) (let ((l273 (= |state.cy!0!0| l253))) (let ((l274 (- l271 1))) (let ((l275 (ite l273 l274 l271))) (let ((l276 (= l275 0))) (let ((l277 (or l256 l260 l264 l268 l272 l276))) (let ((l278 (ite l277 l253 0))) (let ((l279 (= |next.v!0| l278))) (let ((l280 (or l3 l279))) (let ((l281 (= |state.cy!1!4| |state.cy!1!5|))) (let ((l282 (ite l281 2 0))) (let ((l283 (= l282 0))) (let ((l284 (= |state.cy!1!3| |state.cy!1!5|))) (let ((l285 (+ l282 1))) (let ((l286 (- l282 1))) (let ((l287 (ite l284 l285 l286))) (let ((l288 (ite l283 1 l287))) (let ((l289 (= l288 0))) (let ((l290 (ite l283 |state.cy!1!3| |state.cy!1!5|))) (let ((l291 (= |state.cy!1!2| l290))) (let ((l292 (+ l288 1))) (let ((l293 (- l288 1))) (let ((l294 (ite l291 l292 l293))) (let ((l295 (ite l289 1 l294))) (let ((l296 (= l295 0))) (let ((l297 (ite l289 |state.cy!1!2| l290))) (let ((l298 (= |state.cy!1!1| l297))) (let ((l299 (+ l295 1))) (let ((l300 (- l295 1))) (let ((l301 (ite l298 l299 l300))) (let ((l302 (ite l296 1 l301))) (let ((l303 (= l302 0))) (let ((l304 (ite l296 |state.cy!1!1| l297))) (let ((l305 (ite l303 |state.cy!1!0| l304))) (let ((l306 (= |state.cy!1!5| l305))) (let ((l307 (ite l306 3 4))) (let ((l308 (= l307 0))) (let ((l309 (= |state.cy!1!4| l305))) (let ((l310 (- l307 1))) (let ((l311 (ite l309 l310 l307))) (let ((l312 (= l311 0))) (let ((l313 (= |state.cy!1!3| l305))) (let ((l314 (- l311 1))) (let ((l315 (ite l313 l314 l311))) (let ((l316 (= l315 0))) (let ((l317 (= |state.cy!1!2| l305))) (let ((l318 (- l315 1))) (let ((l319 (ite l317 l318 l315))) (let ((l320 (= l319 0))) (let ((l321 (= |state.cy!1!1| l305))) (let ((l322 (- l319 1))) (let ((l323 (ite l321 l322 l319))) (let ((l324 (= l323 0))) (let ((l325 (= |state.cy!1!0| l305))) (let ((l326 (- l323 1))) (let ((l327 (ite l325 l326 l323))) (let ((l328 (= l327 0))) (let ((l329 (or l308 l312 l316 l320 l324 l328))) (let ((l330 (ite l329 l305 0))) (let ((l331 (= |next.v!1| l330))) (let ((l332 (or l14 l331))) (let ((l333 (= |state.cy!2!4| |state.cy!2!5|))) (let ((l334 (ite l333 2 0))) (let ((l335 (= l334 0))) (let ((l336 (= |state.cy!2!3| |state.cy!2!5|))) (let ((l337 (+ l334 1))) (let ((l338 (- l334 1))) (let ((l339 (ite l336 l337 l338))) (let ((l340 (ite l335 1 l339))) (let ((l341 (= l340 0))) (let ((l342 (ite l335 |state.cy!2!3| |state.cy!2!5|))) (let ((l343 (= |state.cy!2!2| l342))) (let ((l344 (+ l340 1))) (let ((l345 (- l340 1))) (let ((l346 (ite l343 l344 l345))) (let ((l347 (ite l341 1 l346))) (let ((l348 (= l347 0))) (let ((l349 (ite l341 |state.cy!2!2| l342))) (let ((l350 (= |state.cy!2!1| l349))) (let ((l351 (+ l347 1))) (let ((l352 (- l347 1))) (let ((l353 (ite l350 l351 l352))) (let ((l354 (ite l348 1 l353))) (let ((l355 (= l354 0))) (let ((l356 (ite l348 |state.cy!2!1| l349))) (let ((l357 (ite l355 |state.cy!2!0| l356))) (let ((l358 (= |state.cy!2!5| l357))) (let ((l359 (ite l358 3 4))) (let ((l360 (= l359 0))) (let ((l361 (= |state.cy!2!4| l357))) (let ((l362 (- l359 1))) (let ((l363 (ite l361 l362 l359))) (let ((l364 (= l363 0))) (let ((l365 (= |state.cy!2!3| l357))) (let ((l366 (- l363 1))) (let ((l367 (ite l365 l366 l363))) (let ((l368 (= l367 0))) (let ((l369 (= |state.cy!2!2| l357))) (let ((l370 (- l367 1))) (let ((l371 (ite l369 l370 l367))) (let ((l372 (= l371 0))) (let ((l373 (= |state.cy!2!1| l357))) (let ((l374 (- l371 1))) (let ((l375 (ite l373 l374 l371))) (let ((l376 (= l375 0))) (let ((l377 (= |state.cy!2!0| l357))) (let ((l378 (- l375 1))) (let ((l379 (ite l377 l378 l375))) (let ((l380 (= l379 0))) (let ((l381 (or l360 l364 l368 l372 l376 l380))) (let ((l382 (ite l381 l357 0))) (let ((l383 (= |next.v!2| l382))) (let ((l384 (or l25 l383))) (let ((l385 (= |state.cy!3!4| |state.cy!3!5|))) (let ((l386 (ite l385 2 0))) (let ((l387 (= l386 0))) (let ((l388 (= |state.cy!3!3| |state.cy!3!5|))) (let ((l389 (+ l386 1))) (let ((l390 (- l386 1))) (let ((l391 (ite l388 l389 l390))) (let ((l392 (ite l387 1 l391))) (let ((l393 (= l392 0))) (let ((l394 (ite l387 |state.cy!3!3| |state.cy!3!5|))) (let ((l395 (= |state.cy!3!2| l394))) (let ((l396 (+ l392 1))) (let ((l397 (- l392 1))) (let ((l398 (ite l395 l396 l397))) (let ((l399 (ite l393 1 l398))) (let ((l400 (= l399 0))) (let ((l401 (ite l393 |state.cy!3!2| l394))) (let ((l402 (= |state.cy!3!1| l401))) (let ((l403 (+ l399 1))) (let ((l404 (- l399 1))) (let ((l405 (ite l402 l403 l404))) (let ((l406 (ite l400 1 l405))) (let ((l407 (= l406 0))) (let ((l408 (ite l400 |state.cy!3!1| l401))) (let ((l409 (ite l407 |state.cy!3!0| l408))) (let ((l410 (= |state.cy!3!5| l409))) (let ((l411 (ite l410 3 4))) (let ((l412 (= l411 0))) (let ((l413 (= |state.cy!3!4| l409))) (let ((l414 (- l411 1))) (let ((l415 (ite l413 l414 l411))) (let ((l416 (= l415 0))) (let ((l417 (= |state.cy!3!3| l409))) (let ((l418 (- l415 1))) (let ((l419 (ite l417 l418 l415))) (let ((l420 (= l419 0))) (let ((l421 (= |state.cy!3!2| l409))) (let ((l422 (- l419 1))) (let ((l423 (ite l421 l422 l419))) (let ((l424 (= l423 0))) (let ((l425 (= |state.cy!3!1| l409))) (let ((l426 (- l423 1))) (let ((l427 (ite l425 l426 l423))) (let ((l428 (= l427 0))) (let ((l429 (= |state.cy!3!0| l409))) (let ((l430 (- l427 1))) (let ((l431 (ite l429 l430 l427))) (let ((l432 (= l431 0))) (let ((l433 (or l412 l416 l420 l424 l428 l432))) (let ((l434 (ite l433 l409 0))) (let ((l435 (= |next.v!3| l434))) (let ((l436 (or l36 l435))) (let ((l437 (and l280 l332 l384 l436))) (let ((l438 (= |next.round| 3))) (let ((l439 (and l228 l437 l438 l226 l105 l110 l117))) (let ((l440 (= |state.round| 3))) (let ((l441 (= |next.round| |state.round|))) (let ((l442 (and l440 l226 l105 l110 l117 l441 l122))) (let ((l443 (or l123 l227 l439 l442))) (let ((l444 (and l0 l1 l443))) l444)))))))))))))))))))))))))))))))))))))))))))))))))))))))))))))))))))))))))))))))))))))))))))))))))))))))))))))))))))))))))))))))))))))))))))))))))))))))))))))))))))))))))))))))))))))))))))))))))))))))))))))))))))))))))))))))))))))))))))))))))))))))))))))))))))))))))))))))))))))))))))))))))))))))))))))))))))))))))))))))))))))))))))))))))))))))))))))))))))))))))))))))))))))))))))))))))))))))))))))))))))))))))))))))))))))))))))))))))))))))))))))
        )
        (invariant next.cx!0!0 next.cx!0!1 next.cx!0!2 next.cx!0!3 next.cx!0!4 next.cx!0!5 next.cx!1!0 next.cx!1!1 next.cx!1!2 next.cx!1!3 next.cx!1!4 next.cx!1!5 next.cx!2!0 next.cx!2!1 next.cx!2!2 next.cx!2!3 next.cx!2!4 next.cx!2!5 next.cx!3!0 next.cx!3!1 next.cx!3!2 next.cx!3!3 next.cx!3!4 next.cx!3!5 next.cy!0!0 next.cy!0!1 next.cy!0!2 next.cy!0!3 next.cy!0!4 next.cy!0!5 next.cy!1!0 next.cy!1!1 next.cy!1!2 next.cy!1!3 next.cy!1!4 next.cy!1!5 next.cy!2!0 next.cy!2!1 next.cy!2!2 next.cy!2!3 next.cy!2!4 next.cy!2!5 next.cy!3!0 next.cy!3!1 next.cy!3!2 next.cy!3!3 next.cy!3!4 next.cy!3!5 next.good_p!0 next.good_p!1 next.good_p!2 next.good_p!3 next.good_r!0 next.good_r!1 next.good_r!2 next.good_r!3 next.good_r!4 next.good_r!5 next.v!0 next.v!1 next.v!2 next.v!3 next.round next.source next.val)
    )
  )
)

;; Property
(assert
  (forall ((state.cx!0!0 Real) (state.cx!0!1 Real) (state.cx!0!2 Real) (state.cx!0!3 Real) (state.cx!0!4 Real) (state.cx!0!5 Real) (state.cx!1!0 Real) (state.cx!1!1 Real) (state.cx!1!2 Real) (state.cx!1!3 Real) (state.cx!1!4 Real) (state.cx!1!5 Real) (state.cx!2!0 Real) (state.cx!2!1 Real) (state.cx!2!2 Real) (state.cx!2!3 Real) (state.cx!2!4 Real) (state.cx!2!5 Real) (state.cx!3!0 Real) (state.cx!3!1 Real) (state.cx!3!2 Real) (state.cx!3!3 Real) (state.cx!3!4 Real) (state.cx!3!5 Real) (state.cy!0!0 Real) (state.cy!0!1 Real) (state.cy!0!2 Real) (state.cy!0!3 Real) (state.cy!0!4 Real) (state.cy!0!5 Real) (state.cy!1!0 Real) (state.cy!1!1 Real) (state.cy!1!2 Real) (state.cy!1!3 Real) (state.cy!1!4 Real) (state.cy!1!5 Real) (state.cy!2!0 Real) (state.cy!2!1 Real) (state.cy!2!2 Real) (state.cy!2!3 Real) (state.cy!2!4 Real) (state.cy!2!5 Real) (state.cy!3!0 Real) (state.cy!3!1 Real) (state.cy!3!2 Real) (state.cy!3!3 Real) (state.cy!3!4 Real) (state.cy!3!5 Real) (state.good_p!0 Bool) (state.good_p!1 Bool) (state.good_p!2 Bool) (state.good_p!3 Bool) (state.good_r!0 Bool) (state.good_r!1 Bool) (state.good_r!2 Bool) (state.good_r!3 Bool) (state.good_r!4 Bool) (state.good_r!5 Bool) (state.v!0 Real) (state.v!1 Real) (state.v!2 Real) (state.v!3 Real) (state.round Real) (state.source Real) (state.val Real))
    (=> (invariant state.cx!0!0 state.cx!0!1 state.cx!0!2 state.cx!0!3 state.cx!0!4 state.cx!0!5 state.cx!1!0 state.cx!1!1 state.cx!1!2 state.cx!1!3 state.cx!1!4 state.cx!1!5 state.cx!2!0 state.cx!2!1 state.cx!2!2 state.cx!2!3 state.cx!2!4 state.cx!2!5 state.cx!3!0 state.cx!3!1 state.cx!3!2 state.cx!3!3 state.cx!3!4 state.cx!3!5 state.cy!0!0 state.cy!0!1 state.cy!0!2 state.cy!0!3 state.cy!0!4 state.cy!0!5 state.cy!1!0 state.cy!1!1 state.cy!1!2 state.cy!1!3 state.cy!1!4 state.cy!1!5 state.cy!2!0 state.cy!2!1 state.cy!2!2 state.cy!2!3 state.cy!2!4 state.cy!2!5 state.cy!3!0 state.cy!3!1 state.cy!3!2 state.cy!3!3 state.cy!3!4 state.cy!3!5 state.good_p!0 state.good_p!1 state.good_p!2 state.good_p!3 state.good_r!0 state.good_r!1 state.good_r!2 state.good_r!3 state.good_r!4 state.good_r!5 state.v!0 state.v!1 state.v!2 state.v!3 state.round state.source state.val)
        (let ((l0 (= |state.source| 4))) (let ((l1 (= |state.source| 3))) (let ((l2 (= |state.source| 2))) (let ((l3 (ite l2 |state.good_p!1| |state.good_p!0|))) (let ((l4 (ite l1 |state.good_p!2| l3))) (let ((l5 (ite l0 |state.good_p!3| l4))) (let ((l6 (not l5))) (let ((l7 (< |state.round| 3))) (let ((l8 (not |state.good_p!0|))) (let ((l9 (= |state.v!0| |state.val|))) (let ((l10 (or l8 l9))) (let ((l11 (not |state.good_p!1|))) (let ((l12 (= |state.v!1| |state.val|))) (let ((l13 (or l11 l12))) (let ((l14 (not |state.good_p!2|))) (let ((l15 (= |state.v!2| |state.val|))) (let ((l16 (or l14 l15))) (let ((l17 (not |state.good_p!3|))) (let ((l18 (= |state.v!3| |state.val|))) (let ((l19 (or l17 l18))) (let ((l20 (and l10 l13 l16 l19))) (let ((l21 (or l6 l7 l20))) l21))))))))))))))))))))))
    )
  )
)

;; Check the property
(check-sat)
